p cnf 12 43
-10 -8 7 0
-11 -10 -5 0
-4 4 9 0
1 5 12 0
9 11 12 0
-10 -6 4 0
-9 -2 1 0
-12 -1 2 0
-8 -5 -4 0
-11 2 7 0
-11 -6 3 0
-12 3 10 0
-5 -2 8 0
1 8 9 0
-5 2 10 0
-9 -7 -3 0
-12 -10 7 0
-6 3 10 0
2 4 5 0
-4 9 11 0
-10 -7 -1 0
-8 -7 -5 0
-5 5 8 0
3 9 12 0
-11 -8 -2 0
-12 2 9 0
-1 9 12 0
-12 -4 5 0
-7 2 10 0
-1 2 12 0
-9 -2 8 0
-1 3 9 0
-12 -5 -1 0
-5 -2 1 0
2 6 10 0
-10 -2 7 0
-6 3 9 0
-10 -9 6 0
-10 4 7 0
-5 10 12 0
-8 -2 5 0
-10 2 5 0
-10 1 7 0
